(set-logic QF_S)
(declare-fun _var_0xINPUT_358892_() String)
(declare-fun __woorpje_diseq_pref0_() String)
(declare-fun __woorpje_diseq_suf_l0_() String)
(declare-fun __woorpje_diseq_suf_r0_() String)
(declare-fun __woorpje_diseq_pref1_() String)
(declare-fun __woorpje_diseq_suf_l1_() String)
(declare-fun __woorpje_diseq_suf_r1_() String)
(assert (=(str.++ _var_0xINPUT_358892_  "")(str.++ __woorpje_diseq_pref1_  "x" __woorpje_diseq_suf_l1_  "")) )
(assert (=(str.++  "3s71lxYG6e" "")(str.++ __woorpje_diseq_pref1_  "e" __woorpje_diseq_suf_r1_  "")) )
(assert  (<= (* (str.len _var_0xINPUT_358892_)(- 1)) (- 1)) )
(assert  (<= (* (str.len _var_0xINPUT_358892_)(- 1)) (- 1)) )
(check-sat)
